set tyres := 1 2 3;
set laps := 1 2 3 4 5 6 7 8 9 10 11;
set stints := 1 2 3 4 5;
param time:
            1      2      3       4      5=
    1       115    116    117     118    119
    2       116    117    118     119    120
    3       117    118    119     120    121;